(set-info :smt-lib-version 2.6)
(set-logic ALL)
(set-info :source |
Benchmarks used in the followin paper:
Big proof engines as little proof engines: new results on rewrite-based satisfiability procedure
Alessandro Armando, Maria Paola Bonacina, Silvio Ranise, Stephan Schulz. 
PDPAR'05
http://www.ai.dist.unige.it/pdpar05/


|)
(set-info :category "crafted")
(set-info :status unsat)

(declare-sort Element 0)
(declare-fun a_135 () (Seq Element))
(declare-fun a_137 () (Seq Element))
(declare-fun a_139 () (Seq Element))
(declare-fun a_141 () (Seq Element))
(declare-fun a_143 () (Seq Element))
(declare-fun a_145 () (Seq Element))
(declare-fun a_147 () (Seq Element))
(declare-fun a_149 () (Seq Element))
(declare-fun a_151 () (Seq Element))
(declare-fun a_153 () (Seq Element))
(declare-fun a_155 () (Seq Element))
(declare-fun a_157 () (Seq Element))
(declare-fun a_159 () (Seq Element))
(declare-fun a_160 () (Seq Element))
(declare-fun a_162 () (Seq Element))
(declare-fun a_164 () (Seq Element))
(declare-fun a_166 () (Seq Element))
(declare-fun a_168 () (Seq Element))
(declare-fun a_169 () (Seq Element))
(declare-fun a_170 () (Seq Element))
(declare-fun a_172 () (Seq Element))
(declare-fun a_174 () (Seq Element))
(declare-fun a_176 () (Seq Element))
(declare-fun a_178 () (Seq Element))
(declare-fun a_180 () (Seq Element))
(declare-fun a_182 () (Seq Element))
(declare-fun a_184 () (Seq Element))
(declare-fun a_186 () (Seq Element))
(declare-fun a_188 () (Seq Element))
(declare-fun a_189 () (Seq Element))
(declare-fun a_191 () (Seq Element))
(declare-fun a_193 () (Seq Element))
(declare-fun a_195 () (Seq Element))
(declare-fun a_197 () (Seq Element))
(declare-fun e_134 () Element)
(declare-fun e_136 () Element)
(declare-fun e_138 () Element)
(declare-fun e_140 () Element)
(declare-fun e_142 () Element)
(declare-fun e_144 () Element)
(declare-fun e_146 () Element)
(declare-fun e_148 () Element)
(declare-fun e_150 () Element)
(declare-fun e_152 () Element)
(declare-fun e_154 () Element)
(declare-fun e_156 () Element)
(declare-fun e_158 () Element)
(declare-fun e_161 () Element)
(declare-fun e_163 () Element)
(declare-fun e_165 () Element)
(declare-fun e_167 () Element)
(declare-fun e_171 () Element)
(declare-fun e_173 () Element)
(declare-fun e_175 () Element)
(declare-fun e_177 () Element)
(declare-fun e_179 () Element)
(declare-fun e_181 () Element)
(declare-fun e_183 () Element)
(declare-fun e_185 () Element)
(declare-fun e_187 () Element)
(declare-fun e_190 () Element)
(declare-fun e_192 () Element)
(declare-fun e_194 () Element)
(declare-fun e_196 () Element)
(declare-fun a1 () (Seq Element))
(declare-fun i0 () Int)
(declare-fun i2 () Int)
(declare-fun i3 () Int)
(declare-fun i4 () Int)
(declare-fun i5 () Int)
(declare-fun i6 () Int)
(declare-fun i7 () Int)
(declare-fun i8 () Int)
(assert (= a_135 (seq.update a1 i6 (seq.unit e_134))))
(assert (= a_137 (seq.update a_135 i7 (seq.unit e_136))))
(assert (= a_139 (seq.update a_137 i4 (seq.unit e_138))))
(assert (= a_141 (seq.update a_139 i6 (seq.unit e_140))))
(assert (= a_143 (seq.update a_141 i0 (seq.unit e_142))))
(assert (= a_145 (seq.update a_143 i5 (seq.unit e_144))))
(assert (= a_147 (seq.update a_145 i8 (seq.unit e_146))))
(assert (= a_149 (seq.update a_147 i5 (seq.unit e_148))))
(assert (= a_151 (seq.update a_149 i4 (seq.unit e_150))))
(assert (= a_153 (seq.update a_151 i2 (seq.unit e_152))))
(assert (= a_155 (seq.update a_153 i7 (seq.unit e_154))))
(assert (= a_157 (seq.update a_155 i3 (seq.unit e_156))))
(assert (= a_159 (seq.update a_157 i0 (seq.unit e_158))))
(assert (= a_160 (seq.update a_159 i0 (seq.unit e_158))))
(assert (= a_162 (seq.update a_160 i2 (seq.unit e_161))))
(assert (= a_164 (seq.update a_162 i0 (seq.unit e_163))))
(assert (= a_166 (seq.update a_164 i7 (seq.unit e_165))))
(assert (= a_168 (seq.update a_166 i5 (seq.unit e_167))))
(assert (= a_169 (seq.update a_137 i6 (seq.unit e_140))))
(assert (= a_170 (seq.update a_169 i4 (seq.unit e_138))))
(assert (= a_172 (seq.update a_170 i5 (seq.unit e_171))))
(assert (= a_174 (seq.update a_172 i0 (seq.unit e_173))))
(assert (= a_176 (seq.update a_174 i8 (seq.unit e_175))))
(assert (= a_178 (seq.update a_176 i5 (seq.unit e_177))))
(assert (= a_180 (seq.update a_178 i2 (seq.unit e_179))))
(assert (= a_182 (seq.update a_180 i4 (seq.unit e_181))))
(assert (= a_184 (seq.update a_182 i3 (seq.unit e_183))))
(assert (= a_186 (seq.update a_184 i7 (seq.unit e_185))))
(assert (= a_188 (seq.update a_186 i0 (seq.unit e_187))))
(assert (= a_189 (seq.update a_188 i0 (seq.unit e_187))))
(assert (= a_191 (seq.update a_189 i2 (seq.unit e_190))))
(assert (= a_193 (seq.update a_191 i0 (seq.unit e_192))))
(assert (= a_195 (seq.update a_193 i7 (seq.unit e_194))))
(assert (= a_197 (seq.update a_195 i5 (seq.unit e_196))))
(assert (= e_134 (seq.nth a1 i7)))
(assert (= e_136 (seq.nth a1 i6)))
(assert (= e_138 (seq.nth a_137 i6)))
(assert (= e_140 (seq.nth a_137 i4)))
(assert (= e_142 (seq.nth a_141 i5)))
(assert (= e_144 (seq.nth a_141 i0)))
(assert (= e_146 (seq.nth a_145 i5)))
(assert (= e_148 (seq.nth a_145 i8)))
(assert (= e_150 (seq.nth a_149 i2)))
(assert (= e_152 (seq.nth a_149 i4)))
(assert (= e_154 (seq.nth a_153 i3)))
(assert (= e_156 (seq.nth a_153 i7)))
(assert (= e_158 (seq.nth a_157 i0)))
(assert (= e_161 (seq.nth a_160 i0)))
(assert (= e_163 (seq.nth a_160 i2)))
(assert (= e_165 (seq.nth a_164 i5)))
(assert (= e_167 (seq.nth a_164 i7)))
(assert (= e_171 (seq.nth a_170 i0)))
(assert (= e_173 (seq.nth a_170 i5)))
(assert (= e_175 (seq.nth a_174 i5)))
(assert (= e_177 (seq.nth a_174 i8)))
(assert (= e_179 (seq.nth a_178 i4)))
(assert (= e_181 (seq.nth a_178 i2)))
(assert (= e_183 (seq.nth a_182 i7)))
(assert (= e_185 (seq.nth a_182 i3)))
(assert (= e_187 (seq.nth a_186 i0)))
(assert (= e_190 (seq.nth a_189 i0)))
(assert (= e_192 (seq.nth a_189 i2)))
(assert (= e_194 (seq.nth a_193 i5)))
(assert (= e_196 (seq.nth a_193 i7)))
(assert (not (= a_168 a_197)))
(check-sat)
(exit)
